(declare-sort A$ 0)

(declare-sort Real_set$ 0)

(declare-sort Real_a_fun$ 0)

(declare-sort Real_measure$ 0)

(declare-fun a$ () Real)
(declare-fun b$ () Real)
(declare-fun f$ (Real) A$)
(declare-fun s$ () Real_set$)
(declare-fun x$ () Real)
(declare-fun y$ () Real)
(declare-fun uu$ () Real_a_fun$)
(declare-fun lborel$ () Real_measure$)
(declare-fun member$ (Real Real_set$) Bool)
(declare-fun scaleR$ (Real A$) A$)
(declare-fun fun_app$ (Real_a_fun$ Real) A$)
(declare-fun measure$ (Real_measure$ Real_set$) Real)
(declare-fun has_integral$ (Real_a_fun$ A$ Real_set$) Bool)
(declare-fun atLeastAtMost$ (Real Real) Real_set$)
(assert (forall ((?v0 Real)) (= (fun_app$ uu$ ?v0) (f$ x$))))
(assert (not (has_integral$ uu$ (scaleR$ (- x$ y$) (f$ x$)) (atLeastAtMost$ y$ x$))))
(assert (<= a$ x$))
(assert (<= a$ y$))
(assert (<= x$ b$))
(assert (not (member$ x$ s$)))
(assert (<= y$ b$))
(assert (not (member$ y$ s$)))
(assert (< y$ x$))
(assert (has_integral$ uu$ (scaleR$ (measure$ lborel$ (atLeastAtMost$ y$ x$)) (f$ x$)) (atLeastAtMost$ y$ x$)))
(assert (forall ((?v0 Real) (?v1 Real)) (= (measure$ lborel$ (atLeastAtMost$ ?v0 ?v1)) (ite (<= ?v0 ?v1) (- ?v1 ?v0) 0.0))))
(check-sat)
